
Gurobi 11.0.0 (linux64) logging started Thu Jan  2 03:21:02 2025

Set parameter LogFile to value "gurobi.log"
Set parameter InfUnbdInfo to value 1
Gurobi Optimizer version 11.0.0 build v11.0.0rc2 (linux64 - "Ubuntu 22.04.4 LTS")

CPU model: AMD EPYC 7V13 64-Core Processor, instruction set [SSE2|AVX|AVX2]
Thread count: 128 physical cores, 128 logical processors, using up to 32 threads

Optimize a model with 107 rows, 373 columns and 297 nonzeros
Model fingerprint: 0xd936860a
Model has 250 quadratic constraints
Model has 40 general constraints
Variable types: 77 continuous, 296 integer (0 binary)
Coefficient statistics:
  Matrix range     [1e+00, 2e+01]
  QMatrix range    [1e+00, 2e+02]
  QLMatrix range   [1e+00, 1e+00]
  Objective range  [1e+00, 1e+00]
  Bounds range     [1e+00, 2e+06]
  RHS range        [1e+00, 8e+00]
  QRHS range       [2e+02, 5e+05]
  GenCon rhs range [1e+00, 1e+00]
  GenCon coe range [1e+00, 1e+00]
Using branch priorities (all 0).
Presolve added 89 rows and 48 columns
Presolve time: 0.01s
Presolved: 901 rows, 814 columns, 3339 nonzeros
Presolved model has 256 SOS constraint(s)
Presolved model has 70 bilinear constraint(s)
Warning: Model contains variables with very large bounds participating
         in product terms.
         Presolve was not able to compute smaller bounds for these variables.
         Consider bounding these variables or reformulating the model.


Solving non-convex MIQCP

Variable types: 215 continuous, 599 integer (216 binary)

Root relaxation: objective 6.093789e+01, 308 iterations, 0.00 seconds (0.00 work units)

    Nodes    |    Current Node    |     Objective Bounds      |     Work
 Expl Unexpl |  Obj  Depth IntInf | Incumbent    BestBd   Gap | It/Node Time

     0     0   60.93789    0  153          -   60.93789      -     -    0s
     0     0   60.93920    0  131          -   60.93920      -     -    0s
H    0     0                    284575.59272   60.93920   100%     -    0s
     0     0  153.29923    0  275 284575.593  153.29923   100%     -    0s
     0     0  209.32753    0  293 284575.593  209.32753   100%     -    0s
     0     0  210.44620    0  298 284575.593  210.44620   100%     -    0s
     0     0  211.65280    0  356 284575.593  211.65280   100%     -    0s
     0     0  212.05807    0  366 284575.593  212.05807   100%     -    0s
     0     0  212.76500    0  353 284575.593  212.76500   100%     -    0s
     0     0  233.61889    0  333 284575.593  233.61889   100%     -    0s
     0     0 1156.91100    0  361 284575.593 1156.91100   100%     -    0s
     0     0 1156.91100    0  362 284575.593 1156.91100   100%     -    0s
     0     0 2298.17959    0  346 284575.593 2298.17959  99.2%     -    0s
     0     0 2298.17959    0  270 284575.593 2298.17959  99.2%     -    0s
     0     0 2298.17959    0  281 284575.593 2298.17959  99.2%     -    0s
     0     0 2298.17959    0  357 284575.593 2298.17959  99.2%     -    0s
H    0     0                    200927.12614 2298.17959  98.9%     -    0s
     0     0 2298.17959    0  255 200927.126 2298.17959  98.9%     -    0s
     0     0 2752.79222    0  104 200927.126 2752.79222  98.6%     -    0s
     0     0 2752.79222    0  261 200927.126 2752.79222  98.6%     -    0s
     0     0 2804.38007    0  123 200927.126 2804.38007  98.6%     -    0s
     0     0 2804.38007    0  253 200927.126 2804.38007  98.6%     -    0s
     0     0 2804.38007    0  343 200927.126 2804.38007  98.6%     -    0s
     0     0 2804.38007    0  355 200927.126 2804.38007  98.6%     -    0s
     0     0 2828.92917    0  350 200927.126 2828.92917  98.6%     -    0s
     0     0 2832.40108    0  274 200927.126 2832.40108  98.6%     -    0s
H    0     0                    82110.835141 3038.39928  96.3%     -    0s
     0     0 3270.56119    0  120 82110.8351 3270.56119  96.0%     -    0s
     0     0 3298.57499    0  304 82110.8351 3298.57499  96.0%     -    0s
     0     0 3384.37709    0  225 82110.8351 3384.37709  95.9%     -    0s
     0     0 3471.70710    0  249 82110.8351 3471.70710  95.8%     -    0s
     0     0 3491.21578    0  286 82110.8351 3491.21578  95.7%     -    0s
     0     0 3505.58004    0  342 82110.8351 3505.58004  95.7%     -    0s
     0     0 3576.19898    0  290 82110.8351 3576.19898  95.6%     -    0s
     0     0 3639.29075    0  300 82110.8351 3639.29075  95.6%     -    0s
     0     0 3662.05624    0  295 82110.8351 3662.05624  95.5%     -    0s
     0     0 3667.84412    0  235 82110.8351 3667.84412  95.5%     -    0s
     0     0 3700.99242    0  266 82110.8351 3700.99242  95.5%     -    0s
     0     0 3740.05301    0  249 82110.8351 3740.05301  95.4%     -    0s
     0     0 3743.21544    0  222 82110.8351 3743.21544  95.4%     -    0s
     0     0 3815.90369    0  230 82110.8351 3815.90369  95.4%     -    1s
     0     0 3911.96372    0  217 82110.8351 3911.96372  95.2%     -    1s
     0     0 3915.24023    0  223 82110.8351 3915.24023  95.2%     -    1s
     0     0 3947.75257    0  227 82110.8351 3947.75257  95.2%     -    1s
     0     0 3977.38552    0  241 82110.8351 3977.38552  95.2%     -    1s
     0     0 3981.59067    0  224 82110.8351 3981.59067  95.2%     -    1s
     0     0 3984.18922    0  235 82110.8351 3984.18922  95.1%     -    1s
     0     0 4028.00723    0  229 82110.8351 4028.00723  95.1%     -    1s
     0     0 4193.11346    0  131 82110.8351 4193.11346  94.9%     -    1s
     0     0 4193.11346    0   84 82110.8351 4193.11346  94.9%     -    2s
     0     0 4193.11346    0   84 82110.8351 4193.11346  94.9%     -    2s
     0     0 4193.11346    0   90 82110.8351 4193.11346  94.9%     -    2s
     0     0 4193.11346    0   90 82110.8351 4193.11346  94.9%     -    2s
     0     0 4193.11346    0  110 82110.8351 4193.11346  94.9%     -    2s
     0     0 4193.11346    0  135 82110.8351 4193.11346  94.9%     -    3s
     0     0 4193.11346    0  126 82110.8351 4193.11346  94.9%     -    3s
     0     0 4193.11346    0  188 82110.8351 4193.11346  94.9%     -    3s
     0     0 4193.11346    0   81 82110.8351 4193.11346  94.9%     -    4s
     0     2 4193.11346    0   65 82110.8351 4193.11346  94.9%     -    5s
H  112    81                    72820.146572 4193.11346  94.2%  56.4    6s
H 1160   446                    70084.325894 4193.11346  94.0%  24.6    8s
H 1364   479                    69208.817959 4193.11346  93.9%  22.8    8s
* 1991   626              52    69120.941995 4193.11346  93.9%  19.4    8s
* 1992   626              50    68580.754495 4193.11346  93.9%  19.4    8s
H 2266   669                    65923.289705 4193.11346  93.6%  18.1    9s
H 2891   652                    64579.394083 7802.90002  87.9%  16.8    9s
* 3551   450              51    63856.897076 20587.9807  67.8%  15.2    9s
  3807   150 56358.6897   20  114 63856.8971 20587.9807  67.8%  14.5   10s
* 3909   150              50    63728.459576 32581.0246  48.9%  14.2   10s
* 4302   150              49    63710.272076 50452.8379  20.8%  13.2   10s

Cutting planes:
  Gomory: 9
  Cover: 2
  Implied bound: 157
  MIR: 22
  StrongCG: 3
  Flow cover: 13
  Inf proof: 3
  Network: 1
  RLT: 22
  Relax-and-lift: 24

Explored 4562 nodes (63970 simplex iterations) in 10.31 seconds (0.78 work units)
Thread count was 32 (of 128 available processors)

Solution count 10: 63710.3 63728.5 63856.9 ... 72820.1

Optimal solution found (tolerance 1.00e-04)
Warning: max constraint violation (6.7261e-04) exceeds tolerance
Warning: max general constraint violation (6.7261e-04) exceeds tolerance
Best objective 6.371027207618e+04, best bound 6.371027207618e+04, gap 0.0000%

Gurobi 11.0.0 (linux64) logging started Thu Jan  2 03:26:42 2025

Set parameter LogFile to value "gurobi.log"
Set parameter InfUnbdInfo to value 1
Gurobi Optimizer version 11.0.0 build v11.0.0rc2 (linux64 - "Ubuntu 22.04.4 LTS")

CPU model: AMD EPYC 7V13 64-Core Processor, instruction set [SSE2|AVX|AVX2]
Thread count: 128 physical cores, 128 logical processors, using up to 32 threads

Optimize a model with 107 rows, 373 columns and 297 nonzeros
Model fingerprint: 0x874c8d11
Model has 250 quadratic constraints
Model has 40 general constraints
Variable types: 77 continuous, 296 integer (0 binary)
Coefficient statistics:
  Matrix range     [1e+00, 2e+01]
  QMatrix range    [1e+00, 2e+02]
  QLMatrix range   [1e+00, 1e+00]
  Objective range  [1e+00, 1e+00]
  Bounds range     [1e+00, 2e+06]
  RHS range        [1e+00, 8e+00]
  QRHS range       [2e+02, 5e+05]
  GenCon rhs range [1e+00, 1e+00]
  GenCon coe range [1e+00, 1e+00]
Using branch priorities (all 0).
Presolve added 89 rows and 48 columns
Presolve time: 0.01s
Presolved: 905 rows, 815 columns, 3351 nonzeros
Presolved model has 256 SOS constraint(s)
Presolved model has 71 bilinear constraint(s)
Warning: Model contains variables with very large bounds participating
         in product terms.
         Presolve was not able to compute smaller bounds for these variables.
         Consider bounding these variables or reformulating the model.


Solving non-convex MIQCP

Variable types: 215 continuous, 600 integer (216 binary)

Root relaxation: objective 6.093789e+01, 301 iterations, 0.00 seconds (0.00 work units)

    Nodes    |    Current Node    |     Objective Bounds      |     Work
 Expl Unexpl |  Obj  Depth IntInf | Incumbent    BestBd   Gap | It/Node Time

     0     0   60.93789    0  154          -   60.93789      -     -    0s
     0     0   60.93920    0  136          -   60.93920      -     -    0s
     0     0  143.25082    0  300          -  143.25082      -     -    0s
H    0     0                    2.212926e+07  143.25082   100%     -    0s
H    0     0                    8005898.9193  143.25082   100%     -    0s
     0     0  170.82665    0  351 8005898.92  170.82665   100%     -    0s
     0     0  176.48786    0  346 8005898.92  176.48786   100%     -    0s
     0     0  193.40804    0  367 8005898.92  193.40804   100%     -    0s
     0     0  203.17006    0  362 8005898.92  203.17006   100%     -    0s
     0     0  211.38670    0  364 8005898.92  211.38670   100%     -    0s
     0     0  247.39545    0  340 8005898.92  247.39545   100%     -    0s
     0     0  255.93872    0  314 8005898.92  255.93872   100%     -    0s
H    0     0                    7950990.7500  259.68789   100%     -    0s
     0     0  277.14446    0  361 7950990.75  277.14446   100%     -    0s
     0     0 2397.45956    0  289 7950990.75 2397.45956   100%     -    0s
     0     0 2413.11172    0  244 7950990.75 2413.11172   100%     -    0s
     0     0 2425.82909    0  273 7950990.75 2425.82909   100%     -    0s
     0     0 2435.61169    0  293 7950990.75 2435.61169   100%     -    0s
     0     0 2450.28558    0  269 7950990.75 2450.28558   100%     -    0s
     0     0 2462.02470    0  256 7950990.75 2462.02470   100%     -    0s
     0     0 2476.69859    0  227 7950990.75 2476.69859   100%     -    0s
     0     0 2477.12499    0  221 7950990.75 2477.12499   100%     -    0s
     0     0 2477.12499    0  185 7950990.75 2477.12499   100%     -    0s
     0     0 2477.12499    0  202 7950990.75 2477.12499   100%     -    0s
     0     0 2477.12499    0  229 7950990.75 2477.12499   100%     -    0s
     0     0 2477.12499    0  270 7950990.75 2477.12499   100%     -    0s
H    0     0                    3722795.5120 2477.12499   100%     -    0s
H    0     0                    102482.37413 2477.12499  97.6%     -    0s
     0     0 2477.12499    0  113 102482.374 2477.12499  97.6%     -    0s
     0     0 2477.12499    0  175 102482.374 2477.12499  97.6%     -    0s
     0     0 2477.12499    0   79 102482.374 2477.12499  97.6%     -    0s
     0     0 2477.12499    0  240 102482.374 2477.12499  97.6%     -    0s
     0     0 2477.12499    0  121 102482.374 2477.12499  97.6%     -    0s
     0     0 2477.12499    0  109 102482.374 2477.12499  97.6%     -    0s
     0     0 2477.12499    0   80 102482.374 2477.12499  97.6%     -    2s
     0     0 2477.12499    0   99 102482.374 2477.12499  97.6%     -    2s
     0     0 2477.12499    0  135 102482.374 2477.12499  97.6%     -    2s
     0     0 2477.12499    0  135 102482.374 2477.12499  97.6%     -    2s
     0     0 2477.12499    0   87 102482.374 2477.12499  97.6%     -    2s
     0     0 2477.12499    0  100 102482.374 2477.12499  97.6%     -    2s
     0     0 2477.12499    0   89 102482.374 2477.12499  97.6%     -    3s
     0     0 2477.12499    0  145 102482.374 2477.12499  97.6%     -    3s
     0     0 2477.12499    0  115 102482.374 2477.12499  97.6%     -    3s
H    0     0                    102482.24913 2477.12499  97.6%     -    4s
     0     0 2477.12499    0  115 102482.249 2477.12499  97.6%     -    4s
     0     2 2477.12499    0   98 102482.249 2477.12499  97.6%     -    5s
H   12    16                    95304.625000 2477.12499  97.4%  90.3    5s
H   31    43                    91884.625000 2477.12499  97.3%  78.3    5s
H   34    43                    83592.812500 2477.12499  97.0%  73.0    5s
H   50    43                    82423.250000 2477.12499  97.0%  72.3    5s
H   90    77                    81145.250000 2477.12499  96.9%  58.4    6s
H  111    77                    63037.250000 2477.12499  96.1%  53.8    6s
H  169    92                    62893.000000 2477.12499  96.1%  42.6    6s
H  371   176                    58921.741536 2477.12499  95.8%  30.0    6s
H  675   241                    58897.991536 2477.12499  95.8%  23.1    6s
H  946   365                    56490.441079 2477.12499  95.6%  21.4    7s
H  948   365                    56490.253579 2477.12499  95.6%  21.4    7s
H  960   365                    56143.649186 2477.12499  95.6%  21.2    7s
* 2403   710              39    55426.301042 5913.74071  89.3%  19.1    9s
* 2420   710              41    54901.118456 5913.74071  89.2%  19.1    9s
H 2646   710                    54382.857605 5913.74071  89.1%  18.5    9s
* 2948   827              38    49720.042155 5913.74071  88.1%  18.3    9s
  3179   561     cutoff   35      49720.0422 6802.21907  86.3%  18.0   10s
* 3535   561              35    49696.042155 32926.8113  33.7%  17.5   10s

Cutting planes:
  Learned: 1
  Gomory: 8
  Cover: 11
  Implied bound: 252
  MIR: 34
  StrongCG: 2
  Flow cover: 12
  Inf proof: 10
  Network: 1
  RLT: 51
  Relax-and-lift: 18

Explored 4729 nodes (75362 simplex iterations) in 11.07 seconds (0.74 work units)
Thread count was 32 (of 128 available processors)

Solution count 10: 49696 49720 54382.9 ... 58921.7

Optimal solution found (tolerance 1.00e-04)
Warning: max constraint violation (8.2330e-04) exceeds tolerance
Warning: max general constraint violation (8.2330e-04) exceeds tolerance
Best objective 4.969604215510e+04, best bound 4.969604215510e+04, gap 0.0000%
